NAME 
ROWS
 N  OBJ
 G  R0      
 G  R1      
 G  R2      
 G  R3      
 G  R4      
 G  R5      
 G  R6      
 G  R7      
 G  R8      
 G  R9      
 G  R10     
 G  R11     
 G  R12     
 G  R13     
 G  R14     
 G  R15     
 G  R16     
 G  R17     
 G  R18     
 G  R19     
 G  R20     
 G  R21     
 G  R22     
 G  R23     
 G  R24     
 G  R25     
 G  R26     
 G  R27     
 G  R28     
 G  R29     
 G  R30     
 G  R31     
 G  R32     
 G  R33     
 G  R34     
 G  R35     
 G  R36     
 G  R37     
 G  R38     
 G  R39     
 G  R40     
 G  R41     
 G  R42     
 G  R43     
 G  R44     
 G  R45     
 G  R46     
 G  R47     
 G  R48     
 G  R49     
 G  R50     
 G  R51     
 G  R52     
 G  R53     
 G  R54     
 G  R55     
 G  R56     
 G  R57     
 G  R58     
 G  R59     
 G  R60     
 G  R61     
 G  R62     
 G  R63     
 G  R64     
 G  R65     
 G  R66     
 G  R67     
 G  R68     
 G  R69     
 G  R70     
 G  R71     
COLUMNS
    x0        OBJ       1
    x0        R0        1
    x0        R1        1
    x0        R2        1
    x0        R3        1
    x0        R6        1
    x0        R9        1
    x0        R18       1
    x0        R36       1
    x1        OBJ       1
    x1        R0        1
    x1        R1        1
    x1        R2        1
    x1        R4        1
    x1        R7        1
    x1        R10       1
    x1        R19       1
    x1        R37       1
    x2        OBJ       1
    x2        R0        1
    x2        R1        1
    x2        R2        1
    x2        R5        1
    x2        R8        1
    x2        R11       1
    x2        R20       1
    x2        R38       1
    x3        OBJ       1
    x3        R0        1
    x3        R3        1
    x3        R4        1
    x3        R5        1
    x3        R6        1
    x3        R12       1
    x3        R21       1
    x3        R39       1
    x4        OBJ       1
    x4        R1        1
    x4        R3        1
    x4        R4        1
    x4        R5        1
    x4        R7        1
    x4        R13       1
    x4        R22       1
    x4        R40       1
    x5        OBJ       1
    x5        R2        1
    x5        R3        1
    x5        R4        1
    x5        R5        1
    x5        R8        1
    x5        R14       1
    x5        R23       1
    x5        R41       1
    x6        OBJ       1
    x6        R0        1
    x6        R3        1
    x6        R6        1
    x6        R7        1
    x6        R8        1
    x6        R15       1
    x6        R24       1
    x6        R42       1
    x7        OBJ       1
    x7        R1        1
    x7        R4        1
    x7        R6        1
    x7        R7        1
    x7        R8        1
    x7        R16       1
    x7        R25       1
    x7        R43       1
    x8        OBJ       1
    x8        R2        1
    x8        R5        1
    x8        R6        1
    x8        R7        1
    x8        R8        1
    x8        R17       1
    x8        R26       1
    x8        R44       1
    x9        OBJ       1
    x9        R0        1
    x9        R9        1
    x9        R10       1
    x9        R11       1
    x9        R12       1
    x9        R15       1
    x9        R27       1
    x9        R45       1
    x10       OBJ       1
    x10       R1        1
    x10       R9        1
    x10       R10       1
    x10       R11       1
    x10       R13       1
    x10       R16       1
    x10       R28       1
    x10       R46       1
    x11       OBJ       1
    x11       R2        1
    x11       R9        1
    x11       R10       1
    x11       R11       1
    x11       R14       1
    x11       R17       1
    x11       R29       1
    x11       R47       1
    x12       OBJ       1
    x12       R3        1
    x12       R9        1
    x12       R12       1
    x12       R13       1
    x12       R14       1
    x12       R15       1
    x12       R30       1
    x12       R48       1
    x13       OBJ       1
    x13       R4        1
    x13       R10       1
    x13       R12       1
    x13       R13       1
    x13       R14       1
    x13       R16       1
    x13       R31       1
    x13       R49       1
    x14       OBJ       1
    x14       R5        1
    x14       R11       1
    x14       R12       1
    x14       R13       1
    x14       R14       1
    x14       R17       1
    x14       R32       1
    x14       R50       1
    x15       OBJ       1
    x15       R6        1
    x15       R9        1
    x15       R12       1
    x15       R15       1
    x15       R16       1
    x15       R17       1
    x15       R33       1
    x15       R51       1
    x16       OBJ       1
    x16       R7        1
    x16       R10       1
    x16       R13       1
    x16       R15       1
    x16       R16       1
    x16       R17       1
    x16       R34       1
    x16       R52       1
    x17       OBJ       1
    x17       R8        1
    x17       R11       1
    x17       R14       1
    x17       R15       1
    x17       R16       1
    x17       R17       1
    x17       R35       1
    x17       R53       1
    x18       OBJ       1
    x18       R0        1
    x18       R18       1
    x18       R19       1
    x18       R20       1
    x18       R21       1
    x18       R24       1
    x18       R27       1
    x18       R54       1
    x19       OBJ       1
    x19       R1        1
    x19       R18       1
    x19       R19       1
    x19       R20       1
    x19       R22       1
    x19       R25       1
    x19       R28       1
    x19       R55       1
    x20       OBJ       1
    x20       R2        1
    x20       R18       1
    x20       R19       1
    x20       R20       1
    x20       R23       1
    x20       R26       1
    x20       R29       1
    x20       R56       1
    x21       OBJ       1
    x21       R3        1
    x21       R18       1
    x21       R21       1
    x21       R22       1
    x21       R23       1
    x21       R24       1
    x21       R30       1
    x21       R57       1
    x22       OBJ       1
    x22       R4        1
    x22       R19       1
    x22       R21       1
    x22       R22       1
    x22       R23       1
    x22       R25       1
    x22       R31       1
    x22       R58       1
    x23       OBJ       1
    x23       R5        1
    x23       R20       1
    x23       R21       1
    x23       R22       1
    x23       R23       1
    x23       R26       1
    x23       R32       1
    x23       R59       1
    x24       OBJ       1
    x24       R6        1
    x24       R18       1
    x24       R21       1
    x24       R24       1
    x24       R25       1
    x24       R26       1
    x24       R33       1
    x24       R60       1
    x25       OBJ       1
    x25       R7        1
    x25       R19       1
    x25       R22       1
    x25       R24       1
    x25       R25       1
    x25       R26       1
    x25       R34       1
    x25       R61       1
    x26       OBJ       1
    x26       R8        1
    x26       R20       1
    x26       R23       1
    x26       R24       1
    x26       R25       1
    x26       R26       1
    x26       R35       1
    x26       R62       1
    x27       OBJ       1
    x27       R9        1
    x27       R18       1
    x27       R27       1
    x27       R28       1
    x27       R29       1
    x27       R30       1
    x27       R33       1
    x27       R63       1
    x28       OBJ       1
    x28       R10       1
    x28       R19       1
    x28       R27       1
    x28       R28       1
    x28       R29       1
    x28       R31       1
    x28       R34       1
    x28       R64       1
    x29       OBJ       1
    x29       R11       1
    x29       R20       1
    x29       R27       1
    x29       R28       1
    x29       R29       1
    x29       R32       1
    x29       R35       1
    x29       R65       1
    x30       OBJ       1
    x30       R12       1
    x30       R21       1
    x30       R27       1
    x30       R30       1
    x30       R31       1
    x30       R32       1
    x30       R33       1
    x30       R66       1
    x31       OBJ       1
    x31       R13       1
    x31       R22       1
    x31       R28       1
    x31       R30       1
    x31       R31       1
    x31       R32       1
    x31       R34       1
    x31       R67       1
    x32       OBJ       1
    x32       R14       1
    x32       R23       1
    x32       R29       1
    x32       R30       1
    x32       R31       1
    x32       R32       1
    x32       R35       1
    x32       R68       1
    x33       OBJ       1
    x33       R15       1
    x33       R24       1
    x33       R27       1
    x33       R30       1
    x33       R33       1
    x33       R34       1
    x33       R35       1
    x33       R69       1
    x34       OBJ       1
    x34       R16       1
    x34       R25       1
    x34       R28       1
    x34       R31       1
    x34       R33       1
    x34       R34       1
    x34       R35       1
    x34       R70       1
    x35       OBJ       1
    x35       R17       1
    x35       R26       1
    x35       R29       1
    x35       R32       1
    x35       R33       1
    x35       R34       1
    x35       R35       1
    x35       R71       1
    x36       OBJ       1
    x36       R0        1
    x36       R36       1
    x36       R37       1
    x36       R38       1
    x36       R39       1
    x36       R42       1
    x36       R45       1
    x36       R54       1
    x37       OBJ       1
    x37       R1        1
    x37       R36       1
    x37       R37       1
    x37       R38       1
    x37       R40       1
    x37       R43       1
    x37       R46       1
    x37       R55       1
    x38       OBJ       1
    x38       R2        1
    x38       R36       1
    x38       R37       1
    x38       R38       1
    x38       R41       1
    x38       R44       1
    x38       R47       1
    x38       R56       1
    x39       OBJ       1
    x39       R3        1
    x39       R36       1
    x39       R39       1
    x39       R40       1
    x39       R41       1
    x39       R42       1
    x39       R48       1
    x39       R57       1
    x40       OBJ       1
    x40       R4        1
    x40       R37       1
    x40       R39       1
    x40       R40       1
    x40       R41       1
    x40       R43       1
    x40       R49       1
    x40       R58       1
    x41       OBJ       1
    x41       R5        1
    x41       R38       1
    x41       R39       1
    x41       R40       1
    x41       R41       1
    x41       R44       1
    x41       R50       1
    x41       R59       1
    x42       OBJ       1
    x42       R6        1
    x42       R36       1
    x42       R39       1
    x42       R42       1
    x42       R43       1
    x42       R44       1
    x42       R51       1
    x42       R60       1
    x43       OBJ       1
    x43       R7        1
    x43       R37       1
    x43       R40       1
    x43       R42       1
    x43       R43       1
    x43       R44       1
    x43       R52       1
    x43       R61       1
    x44       OBJ       1
    x44       R8        1
    x44       R38       1
    x44       R41       1
    x44       R42       1
    x44       R43       1
    x44       R44       1
    x44       R53       1
    x44       R62       1
    x45       OBJ       1
    x45       R9        1
    x45       R36       1
    x45       R45       1
    x45       R46       1
    x45       R47       1
    x45       R48       1
    x45       R51       1
    x45       R63       1
    x46       OBJ       1
    x46       R10       1
    x46       R37       1
    x46       R45       1
    x46       R46       1
    x46       R47       1
    x46       R49       1
    x46       R52       1
    x46       R64       1
    x47       OBJ       1
    x47       R11       1
    x47       R38       1
    x47       R45       1
    x47       R46       1
    x47       R47       1
    x47       R50       1
    x47       R53       1
    x47       R65       1
    x48       OBJ       1
    x48       R12       1
    x48       R39       1
    x48       R45       1
    x48       R48       1
    x48       R49       1
    x48       R50       1
    x48       R51       1
    x48       R66       1
    x49       OBJ       1
    x49       R13       1
    x49       R40       1
    x49       R46       1
    x49       R48       1
    x49       R49       1
    x49       R50       1
    x49       R52       1
    x49       R67       1
    x50       OBJ       1
    x50       R14       1
    x50       R41       1
    x50       R47       1
    x50       R48       1
    x50       R49       1
    x50       R50       1
    x50       R53       1
    x50       R68       1
    x51       OBJ       1
    x51       R15       1
    x51       R42       1
    x51       R45       1
    x51       R48       1
    x51       R51       1
    x51       R52       1
    x51       R53       1
    x51       R69       1
    x52       OBJ       1
    x52       R16       1
    x52       R43       1
    x52       R46       1
    x52       R49       1
    x52       R51       1
    x52       R52       1
    x52       R53       1
    x52       R70       1
    x53       OBJ       1
    x53       R17       1
    x53       R44       1
    x53       R47       1
    x53       R50       1
    x53       R51       1
    x53       R52       1
    x53       R53       1
    x53       R71       1
    x54       OBJ       1
    x54       R18       1
    x54       R36       1
    x54       R54       1
    x54       R55       1
    x54       R56       1
    x54       R57       1
    x54       R60       1
    x54       R63       1
    x55       OBJ       1
    x55       R19       1
    x55       R37       1
    x55       R54       1
    x55       R55       1
    x55       R56       1
    x55       R58       1
    x55       R61       1
    x55       R64       1
    x56       OBJ       1
    x56       R20       1
    x56       R38       1
    x56       R54       1
    x56       R55       1
    x56       R56       1
    x56       R59       1
    x56       R62       1
    x56       R65       1
    x57       OBJ       1
    x57       R21       1
    x57       R39       1
    x57       R54       1
    x57       R57       1
    x57       R58       1
    x57       R59       1
    x57       R60       1
    x57       R66       1
    x58       OBJ       1
    x58       R22       1
    x58       R40       1
    x58       R55       1
    x58       R57       1
    x58       R58       1
    x58       R59       1
    x58       R61       1
    x58       R67       1
    x59       OBJ       1
    x59       R23       1
    x59       R41       1
    x59       R56       1
    x59       R57       1
    x59       R58       1
    x59       R59       1
    x59       R62       1
    x59       R68       1
    x60       OBJ       1
    x60       R24       1
    x60       R42       1
    x60       R54       1
    x60       R57       1
    x60       R60       1
    x60       R61       1
    x60       R62       1
    x60       R69       1
    x61       OBJ       1
    x61       R25       1
    x61       R43       1
    x61       R55       1
    x61       R58       1
    x61       R60       1
    x61       R61       1
    x61       R62       1
    x61       R70       1
    x62       OBJ       1
    x62       R26       1
    x62       R44       1
    x62       R56       1
    x62       R59       1
    x62       R60       1
    x62       R61       1
    x62       R62       1
    x62       R71       1
    x63       OBJ       1
    x63       R27       1
    x63       R45       1
    x63       R54       1
    x63       R63       1
    x63       R64       1
    x63       R65       1
    x63       R66       1
    x63       R69       1
    x64       OBJ       1
    x64       R28       1
    x64       R46       1
    x64       R55       1
    x64       R63       1
    x64       R64       1
    x64       R65       1
    x64       R67       1
    x64       R70       1
    x65       OBJ       1
    x65       R29       1
    x65       R47       1
    x65       R56       1
    x65       R63       1
    x65       R64       1
    x65       R65       1
    x65       R68       1
    x65       R71       1
    x66       OBJ       1
    x66       R30       1
    x66       R48       1
    x66       R57       1
    x66       R63       1
    x66       R66       1
    x66       R67       1
    x66       R68       1
    x66       R69       1
    x67       OBJ       1
    x67       R31       1
    x67       R49       1
    x67       R58       1
    x67       R64       1
    x67       R66       1
    x67       R67       1
    x67       R68       1
    x67       R70       1
    x68       OBJ       1
    x68       R32       1
    x68       R50       1
    x68       R59       1
    x68       R65       1
    x68       R66       1
    x68       R67       1
    x68       R68       1
    x68       R71       1
    x69       OBJ       1
    x69       R33       1
    x69       R51       1
    x69       R60       1
    x69       R63       1
    x69       R66       1
    x69       R69       1
    x69       R70       1
    x69       R71       1
    x70       OBJ       1
    x70       R34       1
    x70       R52       1
    x70       R61       1
    x70       R64       1
    x70       R67       1
    x70       R69       1
    x70       R70       1
    x70       R71       1
    x71       OBJ       1
    x71       R35       1
    x71       R53       1
    x71       R62       1
    x71       R65       1
    x71       R68       1
    x71       R69       1
    x71       R70       1
    x71       R71       1
RHS
    RHS1      R0        1
    RHS1      R1        1
    RHS1      R2        1
    RHS1      R3        1
    RHS1      R4        1
    RHS1      R5        1
    RHS1      R6        1
    RHS1      R7        1
    RHS1      R8        1
    RHS1      R9        1
    RHS1      R10       1
    RHS1      R11       1
    RHS1      R12       1
    RHS1      R13       1
    RHS1      R14       1
    RHS1      R15       1
    RHS1      R16       1
    RHS1      R17       1
    RHS1      R18       1
    RHS1      R19       1
    RHS1      R20       1
    RHS1      R21       1
    RHS1      R22       1
    RHS1      R23       1
    RHS1      R24       1
    RHS1      R25       1
    RHS1      R26       1
    RHS1      R27       1
    RHS1      R28       1
    RHS1      R29       1
    RHS1      R30       1
    RHS1      R31       1
    RHS1      R32       1
    RHS1      R33       1
    RHS1      R34       1
    RHS1      R35       1
    RHS1      R36       1
    RHS1      R37       1
    RHS1      R38       1
    RHS1      R39       1
    RHS1      R40       1
    RHS1      R41       1
    RHS1      R42       1
    RHS1      R43       1
    RHS1      R44       1
    RHS1      R45       1
    RHS1      R46       1
    RHS1      R47       1
    RHS1      R48       1
    RHS1      R49       1
    RHS1      R50       1
    RHS1      R51       1
    RHS1      R52       1
    RHS1      R53       1
    RHS1      R54       1
    RHS1      R55       1
    RHS1      R56       1
    RHS1      R57       1
    RHS1      R58       1
    RHS1      R59       1
    RHS1      R60       1
    RHS1      R61       1
    RHS1      R62       1
    RHS1      R63       1
    RHS1      R64       1
    RHS1      R65       1
    RHS1      R66       1
    RHS1      R67       1
    RHS1      R68       1
    RHS1      R69       1
    RHS1      R70       1
    RHS1      R71       1
BOUNDS
 UP BND1      x0        1
 UP BND1      x1        1
 UP BND1      x2        1
 UP BND1      x3        1
 UP BND1      x4        1
 UP BND1      x5        1
 UP BND1      x6        1
 UP BND1      x7        1
 UP BND1      x8        1
 UP BND1      x9        1
 UP BND1      x10       1
 UP BND1      x11       1
 UP BND1      x12       1
 UP BND1      x13       1
 UP BND1      x14       1
 UP BND1      x15       1
 UP BND1      x16       1
 UP BND1      x17       1
 UP BND1      x18       1
 UP BND1      x19       1
 UP BND1      x20       1
 UP BND1      x21       1
 UP BND1      x22       1
 UP BND1      x23       1
 UP BND1      x24       1
 UP BND1      x25       1
 UP BND1      x26       1
 UP BND1      x27       1
 UP BND1      x28       1
 UP BND1      x29       1
 UP BND1      x30       1
 UP BND1      x31       1
 UP BND1      x32       1
 UP BND1      x33       1
 UP BND1      x34       1
 UP BND1      x35       1
 UP BND1      x36       1
 UP BND1      x37       1
 UP BND1      x38       1
 UP BND1      x39       1
 UP BND1      x40       1
 UP BND1      x41       1
 UP BND1      x42       1
 UP BND1      x43       1
 UP BND1      x44       1
 UP BND1      x45       1
 UP BND1      x46       1
 UP BND1      x47       1
 UP BND1      x48       1
 UP BND1      x49       1
 UP BND1      x50       1
 UP BND1      x51       1
 UP BND1      x52       1
 UP BND1      x53       1
 UP BND1      x54       1
 UP BND1      x55       1
 UP BND1      x56       1
 UP BND1      x57       1
 UP BND1      x58       1
 UP BND1      x59       1
 UP BND1      x60       1
 UP BND1      x61       1
 UP BND1      x62       1
 UP BND1      x63       1
 UP BND1      x64       1
 UP BND1      x65       1
 UP BND1      x66       1
 UP BND1      x67       1
 UP BND1      x68       1
 UP BND1      x69       1
 UP BND1      x70       1
 UP BND1      x71       1
ENDATA
